% Auto-generated by scripts/generate_dzn.py
% problem_type   = regex
% instance       = regex_22
% source_json    = instances_json/1_medium_blowup/regex_22.json
% blowup         = 4.705882352941177
% representation = DFA

mode = 0;

var_count = 20;
n_constraints = 2;
Q = 72;
S = 2;
q0 = [1, 1];
F = [{46, 47, 48, 49, 50, 51, 52, 53, 54, 55, 56, 57, 58, 59, 60, 61, 62, 63, 64, 65, 66, 67, 68, 69, 70, 71, 72}, {7}];
weights = [9, 3, 1, 10, 4, 8, 9, 10, 8, 1, 7, 7, 5, 1, 8, 2, 6, 2, 10, 8];
d_dfa = array3d(1..2, 1..72, 1..2, [
  % k = 1
    2, 1,
    3, 1,
    4, 1,
    5, 6,
    7, 8,
    9, 10,
    11, 12,
    13, 14,
    15, 16,
    17, 16,
    18, 19,
    20, 21,
    22, 23,
    24, 23,
    25, 26,
    27, 26,
    28, 26,
    29, 30,
    31, 32,
    33, 34,
    35, 34,
    36, 37,
    38, 37,
    39, 37,
    40, 41,
    42, 43,
    44, 43,
    45, 43,
    46, 47,
    48, 49,
    50, 51,
    52, 51,
    53, 54,
    55, 54,
    56, 54,
    57, 58,
    59, 60,
    61, 60,
    62, 60,
    63, 64,
    65, 66,
    67, 68,
    69, 68,
    70, 68,
    71, 72,
    46, 47,
    48, 49,
    50, 51,
    52, 51,
    53, 54,
    55, 54,
    56, 54,
    57, 58,
    59, 60,
    61, 60,
    62, 60,
    63, 64,
    65, 66,
    67, 68,
    69, 68,
    70, 68,
    71, 72,
    11, 12,
    13, 14,
    15, 16,
    17, 16,
    4, 1,
    2, 1,
    3, 1,
    5, 6,
    7, 8,
    9, 10,

  % k = 2
    1, 2,
    2, 3,
    3, 4,
    4, 5,
    5, 6,
    6, 7,
    7, 8,
    8, 8,
    0, 0,
    0, 0,
    0, 0,
    0, 0,
    0, 0,
    0, 0,
    0, 0,
    0, 0,
    0, 0,
    0, 0,
    0, 0,
    0, 0,
    0, 0,
    0, 0,
    0, 0,
    0, 0,
    0, 0,
    0, 0,
    0, 0,
    0, 0,
    0, 0,
    0, 0,
    0, 0,
    0, 0,
    0, 0,
    0, 0,
    0, 0,
    0, 0,
    0, 0,
    0, 0,
    0, 0,
    0, 0,
    0, 0,
    0, 0,
    0, 0,
    0, 0,
    0, 0,
    0, 0,
    0, 0,
    0, 0,
    0, 0,
    0, 0,
    0, 0,
    0, 0,
    0, 0,
    0, 0,
    0, 0,
    0, 0,
    0, 0,
    0, 0,
    0, 0,
    0, 0,
    0, 0,
    0, 0,
    0, 0,
    0, 0,
    0, 0,
    0, 0,
    0, 0,
    0, 0,
    0, 0,
    0, 0,
    0, 0,
    0, 0
]);
d_nfa = array3d(1..2, 1..72, 1..2, [
  % k = 1
    {}, {},
    {}, {},
    {}, {},
    {}, {},
    {}, {},
    {}, {},
    {}, {},
    {}, {},
    {}, {},
    {}, {},
    {}, {},
    {}, {},
    {}, {},
    {}, {},
    {}, {},
    {}, {},
    {}, {},
    {}, {},
    {}, {},
    {}, {},
    {}, {},
    {}, {},
    {}, {},
    {}, {},
    {}, {},
    {}, {},
    {}, {},
    {}, {},
    {}, {},
    {}, {},
    {}, {},
    {}, {},
    {}, {},
    {}, {},
    {}, {},
    {}, {},
    {}, {},
    {}, {},
    {}, {},
    {}, {},
    {}, {},
    {}, {},
    {}, {},
    {}, {},
    {}, {},
    {}, {},
    {}, {},
    {}, {},
    {}, {},
    {}, {},
    {}, {},
    {}, {},
    {}, {},
    {}, {},
    {}, {},
    {}, {},
    {}, {},
    {}, {},
    {}, {},
    {}, {},
    {}, {},
    {}, {},
    {}, {},
    {}, {},
    {}, {},
    {}, {},
    {}, {},
    {}, {},
    {}, {},
    {}, {},
    {}, {},
    {}, {},

  % k = 2
    {}, {},
    {}, {},
    {}, {},
    {}, {},
    {}, {},
    {}, {},
    {}, {},
    {}, {},
    {}, {},
    {}, {},
    {}, {},
    {}, {},
    {}, {},
    {}, {},
    {}, {},
    {}, {},
    {}, {},
    {}, {},
    {}, {},
    {}, {},
    {}, {},
    {}, {},
    {}, {},
    {}, {},
    {}, {},
    {}, {},
    {}, {},
    {}, {},
    {}, {},
    {}, {},
    {}, {},
    {}, {},
    {}, {},
    {}, {},
    {}, {},
    {}, {},
    {}, {},
    {}, {},
    {}, {},
    {}, {},
    {}, {},
    {}, {},
    {}, {},
    {}, {},
    {}, {},
    {}, {},
    {}, {},
    {}, {},
    {}, {},
    {}, {},
    {}, {},
    {}, {},
    {}, {},
    {}, {},
    {}, {},
    {}, {},
    {}, {},
    {}, {},
    {}, {},
    {}, {},
    {}, {},
    {}, {},
    {}, {},
    {}, {},
    {}, {},
    {}, {},
    {}, {},
    {}, {},
    {}, {},
    {}, {},
    {}, {},
    {}, {}
]);
